(set-logic ALL)
(declare-const pattern_VAR String)
(declare-const text_VAR String)
(assert (not (> (str.len pattern_VAR) (str.len text_VAR))))
(assert (< 0 (str.len pattern_VAR)))
(assert (> (str.len pattern_VAR) 0))
(assert (> (str.len text_VAR) 0))
(assert (not (= 0 (- (str.len pattern_VAR) 1))))
(assert (< 1 (str.len pattern_VAR)))
(assert (> (str.len pattern_VAR) 1))
(assert (> (str.len text_VAR) 1))
(assert (not (= 1 (- (str.len pattern_VAR) 1))))
(assert (< 2 (str.len pattern_VAR)))
(assert (> (str.len pattern_VAR) 2))
(assert (> (str.len text_VAR) 2))
(assert (not (= 2 (- (str.len pattern_VAR) 1))))
(assert (< 3 (str.len pattern_VAR)))
(assert (> (str.len pattern_VAR) 3))
(assert (> (str.len text_VAR) 3))
(assert (not (= 3 (- (str.len pattern_VAR) 1))))
(assert (< 4 (str.len pattern_VAR)))
(assert (> (str.len pattern_VAR) 4))
(assert (> (str.len text_VAR) 4))
(assert (not (= 4 (- (str.len pattern_VAR) 1))))
(check-sat)
(get-value (pattern_VAR))
(get-value (text_VAR))
